p cnf 384 3168
-1 -121 0
-1 -122 0
121 -121 0
122 -122 0
-21 -133 0
-21 -134 0
133 -133 0
134 -134 0
-41 -145 0
-41 -146 0
145 -145 0
146 -146 0
-61 -157 0
-61 -158 0
157 -157 0
158 -158 0
-81 -169 0
-81 -170 0
169 -169 0
170 -170 0
-101 -181 0
-101 -182 0
181 -181 0
182 -182 0
-2 -121 0
-2 -122 0
121 -121 0
122 -122 0
-22 -133 0
-22 -134 0
133 -133 0
134 -134 0
-42 -145 0
-42 -146 0
145 -145 0
146 -146 0
-62 -157 0
-62 -158 0
157 -157 0
158 -158 0
-82 -169 0
-82 -170 0
169 -169 0
170 -170 0
-102 -181 0
-102 -182 0
181 -181 0
182 -182 0
-3 -121 0
-3 -122 0
121 -121 0
122 -122 0
-23 -133 0
-23 -134 0
133 -133 0
134 -134 0
-43 -145 0
-43 -146 0
145 -145 0
146 -146 0
-63 -157 0
-63 -158 0
157 -157 0
158 -158 0
-83 -169 0
-83 -170 0
169 -169 0
170 -170 0
-103 -181 0
-103 -182 0
181 -181 0
182 -182 0
-4 -121 0
-4 -122 0
121 -121 0
122 -122 0
-24 -133 0
-24 -134 0
133 -133 0
134 -134 0
-44 -145 0
-44 -146 0
145 -145 0
146 -146 0
-64 -157 0
-64 -158 0
157 -157 0
158 -158 0
-84 -169 0
-84 -170 0
169 -169 0
170 -170 0
-104 -181 0
-104 -182 0
181 -181 0
182 -182 0
5 -121 0
5 -122 0
121 -121 0
122 -122 0
25 -133 0
25 -134 0
133 -133 0
134 -134 0
45 -145 0
45 -146 0
145 -145 0
146 -146 0
65 -157 0
65 -158 0
157 -157 0
158 -158 0
85 -169 0
85 -170 0
169 -169 0
170 -170 0
105 -181 0
105 -182 0
181 -181 0
182 -182 0
6 -121 0
6 -122 0
121 -121 0
122 -122 0
26 -133 0
26 -134 0
133 -133 0
134 -134 0
46 -145 0
46 -146 0
145 -145 0
146 -146 0
66 -157 0
66 -158 0
157 -157 0
158 -158 0
86 -169 0
86 -170 0
169 -169 0
170 -170 0
106 -181 0
106 -182 0
181 -181 0
182 -182 0
7 -121 0
7 -122 0
121 -121 0
122 -122 0
27 -133 0
27 -134 0
133 -133 0
134 -134 0
47 -145 0
47 -146 0
145 -145 0
146 -146 0
67 -157 0
67 -158 0
157 -157 0
158 -158 0
87 -169 0
87 -170 0
169 -169 0
170 -170 0
107 -181 0
107 -182 0
181 -181 0
182 -182 0
8 -121 0
8 -122 0
121 -121 0
122 -122 0
28 -133 0
28 -134 0
133 -133 0
134 -134 0
48 -145 0
48 -146 0
145 -145 0
146 -146 0
68 -157 0
68 -158 0
157 -157 0
158 -158 0
88 -169 0
88 -170 0
169 -169 0
170 -170 0
108 -181 0
108 -182 0
181 -181 0
182 -182 0
-9 -121 0
-9 -122 0
121 -121 0
122 -122 0
-29 -133 0
-29 -134 0
133 -133 0
134 -134 0
-49 -145 0
-49 -146 0
145 -145 0
146 -146 0
-69 -157 0
-69 -158 0
157 -157 0
158 -158 0
-89 -169 0
-89 -170 0
169 -169 0
170 -170 0
-109 -181 0
-109 -182 0
181 -181 0
182 -182 0
-10 -121 0
-10 -122 0
121 -121 0
122 -122 0
-30 -133 0
-30 -134 0
133 -133 0
134 -134 0
-50 -145 0
-50 -146 0
145 -145 0
146 -146 0
-70 -157 0
-70 -158 0
157 -157 0
158 -158 0
-90 -169 0
-90 -170 0
169 -169 0
170 -170 0
-110 -181 0
-110 -182 0
181 -181 0
182 -182 0
11 -121 0
11 -122 0
121 -121 0
122 -122 0
31 -133 0
31 -134 0
133 -133 0
134 -134 0
51 -145 0
51 -146 0
145 -145 0
146 -146 0
71 -157 0
71 -158 0
157 -157 0
158 -158 0
91 -169 0
91 -170 0
169 -169 0
170 -170 0
111 -181 0
111 -182 0
181 -181 0
182 -182 0
12 -193 -121 0
-12 193 -121 0
12 193 -122 0
-12 -193 -122 0
32 -193 -133 0
-32 193 -133 0
32 193 -134 0
-32 -193 -134 0
52 -193 -145 0
-52 193 -145 0
52 193 -146 0
-52 -193 -146 0
72 -193 -157 0
-72 193 -157 0
72 193 -158 0
-72 -193 -158 0
92 -193 -169 0
-92 193 -169 0
92 193 -170 0
-92 -193 -170 0
112 -193 -181 0
-112 193 -181 0
112 193 -182 0
-112 -193 -182 0
13 -121 0
13 -122 0
121 -121 0
122 -122 0
33 -133 0
33 -134 0
133 -133 0
134 -134 0
53 -145 0
53 -146 0
145 -145 0
146 -146 0
73 -157 0
73 -158 0
157 -157 0
158 -158 0
93 -169 0
93 -170 0
169 -169 0
170 -170 0
113 -181 0
113 -182 0
181 -181 0
182 -182 0
14 -121 0
14 -122 0
121 -121 0
122 -122 0
34 -133 0
34 -134 0
133 -133 0
134 -134 0
54 -145 0
54 -146 0
145 -145 0
146 -146 0
74 -157 0
74 -158 0
157 -157 0
158 -158 0
94 -169 0
94 -170 0
169 -169 0
170 -170 0
114 -181 0
114 -182 0
181 -181 0
182 -182 0
-15 -121 0
-15 -122 0
121 -121 0
122 -122 0
-35 -133 0
-35 -134 0
133 -133 0
134 -134 0
-55 -145 0
-55 -146 0
145 -145 0
146 -146 0
-75 -157 0
-75 -158 0
157 -157 0
158 -158 0
-95 -169 0
-95 -170 0
169 -169 0
170 -170 0
-115 -181 0
-115 -182 0
181 -181 0
182 -182 0
16 -121 0
16 -122 0
121 -121 0
122 -122 0
36 -133 0
36 -134 0
133 -133 0
134 -134 0
56 -145 0
56 -146 0
145 -145 0
146 -146 0
76 -157 0
76 -158 0
157 -157 0
158 -158 0
96 -169 0
96 -170 0
169 -169 0
170 -170 0
116 -181 0
116 -182 0
181 -181 0
182 -182 0
-17 -121 0
-17 -122 0
121 -121 0
122 -122 0
-37 -133 0
-37 -134 0
133 -133 0
134 -134 0
-57 -145 0
-57 -146 0
145 -145 0
146 -146 0
-77 -157 0
-77 -158 0
157 -157 0
158 -158 0
-97 -169 0
-97 -170 0
169 -169 0
170 -170 0
-117 -181 0
-117 -182 0
181 -181 0
182 -182 0
-18 -121 0
-18 -122 0
121 -121 0
122 -122 0
-38 -133 0
-38 -134 0
133 -133 0
134 -134 0
-58 -145 0
-58 -146 0
145 -145 0
146 -146 0
-78 -157 0
-78 -158 0
157 -157 0
158 -158 0
-98 -169 0
-98 -170 0
169 -169 0
170 -170 0
-118 -181 0
-118 -182 0
181 -181 0
182 -182 0
19 -121 0
19 -122 0
121 -121 0
122 -122 0
39 -133 0
39 -134 0
133 -133 0
134 -134 0
59 -145 0
59 -146 0
145 -145 0
146 -146 0
79 -157 0
79 -158 0
157 -157 0
158 -158 0
99 -169 0
99 -170 0
169 -169 0
170 -170 0
119 -181 0
119 -182 0
181 -181 0
182 -182 0
-20 -121 0
-20 -122 0
121 -121 0
122 -122 0
-40 -133 0
-40 -134 0
133 -133 0
134 -134 0
-60 -145 0
-60 -146 0
145 -145 0
146 -146 0
-80 -157 0
-80 -158 0
157 -157 0
158 -158 0
-100 -169 0
-100 -170 0
169 -169 0
170 -170 0
-120 -181 0
-120 -182 0
181 -181 0
182 -182 0
-313 121 0
313 -121 0
-314 122 0
313 -122 0
-313 -121 0
-314 -122 0
-325 121 313 0
325 -121 0
325 -313 0
-326 122 314 0
326 -122 0
326 -314 0
-325 -133 0
-326 -134 0
-337 133 325 0
337 -133 0
337 -325 0
-338 134 326 0
338 -134 0
338 -326 0
-337 -145 0
-338 -146 0
-349 145 337 0
349 -145 0
349 -337 0
-350 146 338 0
350 -146 0
350 -338 0
-349 -157 0
-350 -158 0
-361 157 349 0
361 -157 0
361 -349 0
-362 158 350 0
362 -158 0
362 -350 0
-361 -169 0
-362 -170 0
-373 169 361 0
373 -169 0
373 -361 0
-374 170 362 0
374 -170 0
374 -362 0
-373 -181 0
-374 -182 0
373 0
374 0
1 -123 0
1 -124 0
123 -123 0
124 -124 0
21 -135 0
21 -136 0
135 -135 0
136 -136 0
41 -147 0
41 -148 0
147 -147 0
148 -148 0
61 -159 0
61 -160 0
159 -159 0
160 -160 0
81 -171 0
81 -172 0
171 -171 0
172 -172 0
101 -183 0
101 -184 0
183 -183 0
184 -184 0
2 -123 0
2 -124 0
123 -123 0
124 -124 0
22 -135 0
22 -136 0
135 -135 0
136 -136 0
42 -147 0
42 -148 0
147 -147 0
148 -148 0
62 -159 0
62 -160 0
159 -159 0
160 -160 0
82 -171 0
82 -172 0
171 -171 0
172 -172 0
102 -183 0
102 -184 0
183 -183 0
184 -184 0
3 -194 -123 0
-3 194 -123 0
3 194 -124 0
-3 -194 -124 0
23 -194 -135 0
-23 194 -135 0
23 194 -136 0
-23 -194 -136 0
43 -194 -147 0
-43 194 -147 0
43 194 -148 0
-43 -194 -148 0
63 -194 -159 0
-63 194 -159 0
63 194 -160 0
-63 -194 -160 0
83 -194 -171 0
-83 194 -171 0
83 194 -172 0
-83 -194 -172 0
103 -194 -183 0
-103 194 -183 0
103 194 -184 0
-103 -194 -184 0
4 -123 0
4 -124 0
123 -123 0
124 -124 0
24 -135 0
24 -136 0
135 -135 0
136 -136 0
44 -147 0
44 -148 0
147 -147 0
148 -148 0
64 -159 0
64 -160 0
159 -159 0
160 -160 0
84 -171 0
84 -172 0
171 -171 0
172 -172 0
104 -183 0
104 -184 0
183 -183 0
184 -184 0
5 -123 0
5 -124 0
123 -123 0
124 -124 0
25 -135 0
25 -136 0
135 -135 0
136 -136 0
45 -147 0
45 -148 0
147 -147 0
148 -148 0
65 -159 0
65 -160 0
159 -159 0
160 -160 0
85 -171 0
85 -172 0
171 -171 0
172 -172 0
105 -183 0
105 -184 0
183 -183 0
184 -184 0
6 -123 0
6 -124 0
123 -123 0
124 -124 0
26 -135 0
26 -136 0
135 -135 0
136 -136 0
46 -147 0
46 -148 0
147 -147 0
148 -148 0
66 -159 0
66 -160 0
159 -159 0
160 -160 0
86 -171 0
86 -172 0
171 -171 0
172 -172 0
106 -183 0
106 -184 0
183 -183 0
184 -184 0
7 -123 0
7 -124 0
123 -123 0
124 -124 0
27 -135 0
27 -136 0
135 -135 0
136 -136 0
47 -147 0
47 -148 0
147 -147 0
148 -148 0
67 -159 0
67 -160 0
159 -159 0
160 -160 0
87 -171 0
87 -172 0
171 -171 0
172 -172 0
107 -183 0
107 -184 0
183 -183 0
184 -184 0
8 -123 0
8 -124 0
123 -123 0
124 -124 0
28 -135 0
28 -136 0
135 -135 0
136 -136 0
48 -147 0
48 -148 0
147 -147 0
148 -148 0
68 -159 0
68 -160 0
159 -159 0
160 -160 0
88 -171 0
88 -172 0
171 -171 0
172 -172 0
108 -183 0
108 -184 0
183 -183 0
184 -184 0
9 -123 0
9 -124 0
123 -123 0
124 -124 0
29 -135 0
29 -136 0
135 -135 0
136 -136 0
49 -147 0
49 -148 0
147 -147 0
148 -148 0
69 -159 0
69 -160 0
159 -159 0
160 -160 0
89 -171 0
89 -172 0
171 -171 0
172 -172 0
109 -183 0
109 -184 0
183 -183 0
184 -184 0
10 -123 0
10 -124 0
123 -123 0
124 -124 0
30 -135 0
30 -136 0
135 -135 0
136 -136 0
50 -147 0
50 -148 0
147 -147 0
148 -148 0
70 -159 0
70 -160 0
159 -159 0
160 -160 0
90 -171 0
90 -172 0
171 -171 0
172 -172 0
110 -183 0
110 -184 0
183 -183 0
184 -184 0
11 -123 0
11 -124 0
123 -123 0
124 -124 0
31 -135 0
31 -136 0
135 -135 0
136 -136 0
51 -147 0
51 -148 0
147 -147 0
148 -148 0
71 -159 0
71 -160 0
159 -159 0
160 -160 0
91 -171 0
91 -172 0
171 -171 0
172 -172 0
111 -183 0
111 -184 0
183 -183 0
184 -184 0
12 -123 0
12 -124 0
123 -123 0
124 -124 0
32 -135 0
32 -136 0
135 -135 0
136 -136 0
52 -147 0
52 -148 0
147 -147 0
148 -148 0
72 -159 0
72 -160 0
159 -159 0
160 -160 0
92 -171 0
92 -172 0
171 -171 0
172 -172 0
112 -183 0
112 -184 0
183 -183 0
184 -184 0
13 -123 0
13 -124 0
123 -123 0
124 -124 0
33 -135 0
33 -136 0
135 -135 0
136 -136 0
53 -147 0
53 -148 0
147 -147 0
148 -148 0
73 -159 0
73 -160 0
159 -159 0
160 -160 0
93 -171 0
93 -172 0
171 -171 0
172 -172 0
113 -183 0
113 -184 0
183 -183 0
184 -184 0
14 -195 -123 0
-14 195 -123 0
14 195 -124 0
-14 -195 -124 0
34 -195 -135 0
-34 195 -135 0
34 195 -136 0
-34 -195 -136 0
54 -195 -147 0
-54 195 -147 0
54 195 -148 0
-54 -195 -148 0
74 -195 -159 0
-74 195 -159 0
74 195 -160 0
-74 -195 -160 0
94 -195 -171 0
-94 195 -171 0
94 195 -172 0
-94 -195 -172 0
114 -195 -183 0
-114 195 -183 0
114 195 -184 0
-114 -195 -184 0
15 -123 0
15 -124 0
123 -123 0
124 -124 0
35 -135 0
35 -136 0
135 -135 0
136 -136 0
55 -147 0
55 -148 0
147 -147 0
148 -148 0
75 -159 0
75 -160 0
159 -159 0
160 -160 0
95 -171 0
95 -172 0
171 -171 0
172 -172 0
115 -183 0
115 -184 0
183 -183 0
184 -184 0
16 -196 -123 0
-16 196 -123 0
16 196 -124 0
-16 -196 -124 0
36 -196 -135 0
-36 196 -135 0
36 196 -136 0
-36 -196 -136 0
56 -196 -147 0
-56 196 -147 0
56 196 -148 0
-56 -196 -148 0
76 -196 -159 0
-76 196 -159 0
76 196 -160 0
-76 -196 -160 0
96 -196 -171 0
-96 196 -171 0
96 196 -172 0
-96 -196 -172 0
116 -196 -183 0
-116 196 -183 0
116 196 -184 0
-116 -196 -184 0
17 -123 0
17 -124 0
123 -123 0
124 -124 0
37 -135 0
37 -136 0
135 -135 0
136 -136 0
57 -147 0
57 -148 0
147 -147 0
148 -148 0
77 -159 0
77 -160 0
159 -159 0
160 -160 0
97 -171 0
97 -172 0
171 -171 0
172 -172 0
117 -183 0
117 -184 0
183 -183 0
184 -184 0
18 -123 0
18 -124 0
123 -123 0
124 -124 0
38 -135 0
38 -136 0
135 -135 0
136 -136 0
58 -147 0
58 -148 0
147 -147 0
148 -148 0
78 -159 0
78 -160 0
159 -159 0
160 -160 0
98 -171 0
98 -172 0
171 -171 0
172 -172 0
118 -183 0
118 -184 0
183 -183 0
184 -184 0
19 -123 0
19 -124 0
123 -123 0
124 -124 0
39 -135 0
39 -136 0
135 -135 0
136 -136 0
59 -147 0
59 -148 0
147 -147 0
148 -148 0
79 -159 0
79 -160 0
159 -159 0
160 -160 0
99 -171 0
99 -172 0
171 -171 0
172 -172 0
119 -183 0
119 -184 0
183 -183 0
184 -184 0
20 -123 0
20 -124 0
123 -123 0
124 -124 0
40 -135 0
40 -136 0
135 -135 0
136 -136 0
60 -147 0
60 -148 0
147 -147 0
148 -148 0
80 -159 0
80 -160 0
159 -159 0
160 -160 0
100 -171 0
100 -172 0
171 -171 0
172 -172 0
120 -183 0
120 -184 0
183 -183 0
184 -184 0
-315 123 0
315 -123 0
-316 124 0
315 -124 0
-315 -123 0
-316 -124 0
-327 123 315 0
327 -123 0
327 -315 0
-328 124 316 0
328 -124 0
328 -316 0
-327 -135 0
-328 -136 0
-339 135 327 0
339 -135 0
339 -327 0
-340 136 328 0
340 -136 0
340 -328 0
-339 -147 0
-340 -148 0
-351 147 339 0
351 -147 0
351 -339 0
-352 148 340 0
352 -148 0
352 -340 0
-351 -159 0
-352 -160 0
-363 159 351 0
363 -159 0
363 -351 0
-364 160 352 0
364 -160 0
364 -352 0
-363 -171 0
-364 -172 0
-375 171 363 0
375 -171 0
375 -363 0
-376 172 364 0
376 -172 0
376 -364 0
-375 -183 0
-376 -184 0
375 0
376 0
1 -197 -125 0
-1 197 -125 0
1 197 -126 0
-1 -197 -126 0
21 -197 -137 0
-21 197 -137 0
21 197 -138 0
-21 -197 -138 0
41 -197 -149 0
-41 197 -149 0
41 197 -150 0
-41 -197 -150 0
61 -197 -161 0
-61 197 -161 0
61 197 -162 0
-61 -197 -162 0
81 -197 -173 0
-81 197 -173 0
81 197 -174 0
-81 -197 -174 0
101 -197 -185 0
-101 197 -185 0
101 197 -186 0
-101 -197 -186 0
2 -198 -125 0
-2 198 -125 0
2 198 -126 0
-2 -198 -126 0
22 -198 -137 0
-22 198 -137 0
22 198 -138 0
-22 -198 -138 0
42 -198 -149 0
-42 198 -149 0
42 198 -150 0
-42 -198 -150 0
62 -198 -161 0
-62 198 -161 0
62 198 -162 0
-62 -198 -162 0
82 -198 -173 0
-82 198 -173 0
82 198 -174 0
-82 -198 -174 0
102 -198 -185 0
-102 198 -185 0
102 198 -186 0
-102 -198 -186 0
-3 -125 0
-3 -126 0
125 -125 0
126 -126 0
-23 -137 0
-23 -138 0
137 -137 0
138 -138 0
-43 -149 0
-43 -150 0
149 -149 0
150 -150 0
-63 -161 0
-63 -162 0
161 -161 0
162 -162 0
-83 -173 0
-83 -174 0
173 -173 0
174 -174 0
-103 -185 0
-103 -186 0
185 -185 0
186 -186 0
4 -199 -125 0
-4 199 -125 0
4 199 -126 0
-4 -199 -126 0
24 -199 -137 0
-24 199 -137 0
24 199 -138 0
-24 -199 -138 0
44 -199 -149 0
-44 199 -149 0
44 199 -150 0
-44 -199 -150 0
64 -199 -161 0
-64 199 -161 0
64 199 -162 0
-64 -199 -162 0
84 -199 -173 0
-84 199 -173 0
84 199 -174 0
-84 -199 -174 0
104 -199 -185 0
-104 199 -185 0
104 199 -186 0
-104 -199 -186 0
5 -200 -125 0
-5 200 -125 0
5 200 -126 0
-5 -200 -126 0
25 -200 -137 0
-25 200 -137 0
25 200 -138 0
-25 -200 -138 0
45 -200 -149 0
-45 200 -149 0
45 200 -150 0
-45 -200 -150 0
65 -200 -161 0
-65 200 -161 0
65 200 -162 0
-65 -200 -162 0
85 -200 -173 0
-85 200 -173 0
85 200 -174 0
-85 -200 -174 0
105 -200 -185 0
-105 200 -185 0
105 200 -186 0
-105 -200 -186 0
6 -125 0
6 -126 0
125 -125 0
126 -126 0
26 -137 0
26 -138 0
137 -137 0
138 -138 0
46 -149 0
46 -150 0
149 -149 0
150 -150 0
66 -161 0
66 -162 0
161 -161 0
162 -162 0
86 -173 0
86 -174 0
173 -173 0
174 -174 0
106 -185 0
106 -186 0
185 -185 0
186 -186 0
7 -125 0
7 -126 0
125 -125 0
126 -126 0
27 -137 0
27 -138 0
137 -137 0
138 -138 0
47 -149 0
47 -150 0
149 -149 0
150 -150 0
67 -161 0
67 -162 0
161 -161 0
162 -162 0
87 -173 0
87 -174 0
173 -173 0
174 -174 0
107 -185 0
107 -186 0
185 -185 0
186 -186 0
8 -125 0
8 -126 0
125 -125 0
126 -126 0
28 -137 0
28 -138 0
137 -137 0
138 -138 0
48 -149 0
48 -150 0
149 -149 0
150 -150 0
68 -161 0
68 -162 0
161 -161 0
162 -162 0
88 -173 0
88 -174 0
173 -173 0
174 -174 0
108 -185 0
108 -186 0
185 -185 0
186 -186 0
9 -201 -125 0
-9 201 -125 0
9 201 -126 0
-9 -201 -126 0
29 -201 -137 0
-29 201 -137 0
29 201 -138 0
-29 -201 -138 0
49 -201 -149 0
-49 201 -149 0
49 201 -150 0
-49 -201 -150 0
69 -201 -161 0
-69 201 -161 0
69 201 -162 0
-69 -201 -162 0
89 -201 -173 0
-89 201 -173 0
89 201 -174 0
-89 -201 -174 0
109 -201 -185 0
-109 201 -185 0
109 201 -186 0
-109 -201 -186 0
10 -125 0
10 -126 0
125 -125 0
126 -126 0
30 -137 0
30 -138 0
137 -137 0
138 -138 0
50 -149 0
50 -150 0
149 -149 0
150 -150 0
70 -161 0
70 -162 0
161 -161 0
162 -162 0
90 -173 0
90 -174 0
173 -173 0
174 -174 0
110 -185 0
110 -186 0
185 -185 0
186 -186 0
11 -125 0
11 -126 0
125 -125 0
126 -126 0
31 -137 0
31 -138 0
137 -137 0
138 -138 0
51 -149 0
51 -150 0
149 -149 0
150 -150 0
71 -161 0
71 -162 0
161 -161 0
162 -162 0
91 -173 0
91 -174 0
173 -173 0
174 -174 0
111 -185 0
111 -186 0
185 -185 0
186 -186 0
-12 -125 0
-12 -126 0
125 -125 0
126 -126 0
-32 -137 0
-32 -138 0
137 -137 0
138 -138 0
-52 -149 0
-52 -150 0
149 -149 0
150 -150 0
-72 -161 0
-72 -162 0
161 -161 0
162 -162 0
-92 -173 0
-92 -174 0
173 -173 0
174 -174 0
-112 -185 0
-112 -186 0
185 -185 0
186 -186 0
13 -125 0
13 -126 0
125 -125 0
126 -126 0
33 -137 0
33 -138 0
137 -137 0
138 -138 0
53 -149 0
53 -150 0
149 -149 0
150 -150 0
73 -161 0
73 -162 0
161 -161 0
162 -162 0
93 -173 0
93 -174 0
173 -173 0
174 -174 0
113 -185 0
113 -186 0
185 -185 0
186 -186 0
14 -125 0
14 -126 0
125 -125 0
126 -126 0
34 -137 0
34 -138 0
137 -137 0
138 -138 0
54 -149 0
54 -150 0
149 -149 0
150 -150 0
74 -161 0
74 -162 0
161 -161 0
162 -162 0
94 -173 0
94 -174 0
173 -173 0
174 -174 0
114 -185 0
114 -186 0
185 -185 0
186 -186 0
-15 -125 0
-15 -126 0
125 -125 0
126 -126 0
-35 -137 0
-35 -138 0
137 -137 0
138 -138 0
-55 -149 0
-55 -150 0
149 -149 0
150 -150 0
-75 -161 0
-75 -162 0
161 -161 0
162 -162 0
-95 -173 0
-95 -174 0
173 -173 0
174 -174 0
-115 -185 0
-115 -186 0
185 -185 0
186 -186 0
16 -125 0
16 -126 0
125 -125 0
126 -126 0
36 -137 0
36 -138 0
137 -137 0
138 -138 0
56 -149 0
56 -150 0
149 -149 0
150 -150 0
76 -161 0
76 -162 0
161 -161 0
162 -162 0
96 -173 0
96 -174 0
173 -173 0
174 -174 0
116 -185 0
116 -186 0
185 -185 0
186 -186 0
-17 -125 0
-17 -126 0
125 -125 0
126 -126 0
-37 -137 0
-37 -138 0
137 -137 0
138 -138 0
-57 -149 0
-57 -150 0
149 -149 0
150 -150 0
-77 -161 0
-77 -162 0
161 -161 0
162 -162 0
-97 -173 0
-97 -174 0
173 -173 0
174 -174 0
-117 -185 0
-117 -186 0
185 -185 0
186 -186 0
-18 -125 0
-18 -126 0
125 -125 0
126 -126 0
-38 -137 0
-38 -138 0
137 -137 0
138 -138 0
-58 -149 0
-58 -150 0
149 -149 0
150 -150 0
-78 -161 0
-78 -162 0
161 -161 0
162 -162 0
-98 -173 0
-98 -174 0
173 -173 0
174 -174 0
-118 -185 0
-118 -186 0
185 -185 0
186 -186 0
19 -125 0
19 -126 0
125 -125 0
126 -126 0
39 -137 0
39 -138 0
137 -137 0
138 -138 0
59 -149 0
59 -150 0
149 -149 0
150 -150 0
79 -161 0
79 -162 0
161 -161 0
162 -162 0
99 -173 0
99 -174 0
173 -173 0
174 -174 0
119 -185 0
119 -186 0
185 -185 0
186 -186 0
-20 -125 0
-20 -126 0
125 -125 0
126 -126 0
-40 -137 0
-40 -138 0
137 -137 0
138 -138 0
-60 -149 0
-60 -150 0
149 -149 0
150 -150 0
-80 -161 0
-80 -162 0
161 -161 0
162 -162 0
-100 -173 0
-100 -174 0
173 -173 0
174 -174 0
-120 -185 0
-120 -186 0
185 -185 0
186 -186 0
-317 125 0
317 -125 0
-318 126 0
317 -126 0
-317 -125 0
-318 -126 0
-329 125 317 0
329 -125 0
329 -317 0
-330 126 318 0
330 -126 0
330 -318 0
-329 -137 0
-330 -138 0
-341 137 329 0
341 -137 0
341 -329 0
-342 138 330 0
342 -138 0
342 -330 0
-341 -149 0
-342 -150 0
-353 149 341 0
353 -149 0
353 -341 0
-354 150 342 0
354 -150 0
354 -342 0
-353 -161 0
-354 -162 0
-365 161 353 0
365 -161 0
365 -353 0
-366 162 354 0
366 -162 0
366 -354 0
-365 -173 0
-366 -174 0
-377 173 365 0
377 -173 0
377 -365 0
-378 174 366 0
378 -174 0
378 -366 0
-377 -185 0
-378 -186 0
377 0
378 0
-1 -127 0
-1 -128 0
127 -127 0
128 -128 0
-21 -139 0
-21 -140 0
139 -139 0
140 -140 0
-41 -151 0
-41 -152 0
151 -151 0
152 -152 0
-61 -163 0
-61 -164 0
163 -163 0
164 -164 0
-81 -175 0
-81 -176 0
175 -175 0
176 -176 0
-101 -187 0
-101 -188 0
187 -187 0
188 -188 0
-2 -127 0
-2 -128 0
127 -127 0
128 -128 0
-22 -139 0
-22 -140 0
139 -139 0
140 -140 0
-42 -151 0
-42 -152 0
151 -151 0
152 -152 0
-62 -163 0
-62 -164 0
163 -163 0
164 -164 0
-82 -175 0
-82 -176 0
175 -175 0
176 -176 0
-102 -187 0
-102 -188 0
187 -187 0
188 -188 0
-3 -127 0
-3 -128 0
127 -127 0
128 -128 0
-23 -139 0
-23 -140 0
139 -139 0
140 -140 0
-43 -151 0
-43 -152 0
151 -151 0
152 -152 0
-63 -163 0
-63 -164 0
163 -163 0
164 -164 0
-83 -175 0
-83 -176 0
175 -175 0
176 -176 0
-103 -187 0
-103 -188 0
187 -187 0
188 -188 0
-4 -127 0
-4 -128 0
127 -127 0
128 -128 0
-24 -139 0
-24 -140 0
139 -139 0
140 -140 0
-44 -151 0
-44 -152 0
151 -151 0
152 -152 0
-64 -163 0
-64 -164 0
163 -163 0
164 -164 0
-84 -175 0
-84 -176 0
175 -175 0
176 -176 0
-104 -187 0
-104 -188 0
187 -187 0
188 -188 0
5 -202 -127 0
-5 202 -127 0
5 202 -128 0
-5 -202 -128 0
25 -202 -139 0
-25 202 -139 0
25 202 -140 0
-25 -202 -140 0
45 -202 -151 0
-45 202 -151 0
45 202 -152 0
-45 -202 -152 0
65 -202 -163 0
-65 202 -163 0
65 202 -164 0
-65 -202 -164 0
85 -202 -175 0
-85 202 -175 0
85 202 -176 0
-85 -202 -176 0
105 -202 -187 0
-105 202 -187 0
105 202 -188 0
-105 -202 -188 0
6 -127 0
6 -128 0
127 -127 0
128 -128 0
26 -139 0
26 -140 0
139 -139 0
140 -140 0
46 -151 0
46 -152 0
151 -151 0
152 -152 0
66 -163 0
66 -164 0
163 -163 0
164 -164 0
86 -175 0
86 -176 0
175 -175 0
176 -176 0
106 -187 0
106 -188 0
187 -187 0
188 -188 0
7 -127 0
7 -128 0
127 -127 0
128 -128 0
27 -139 0
27 -140 0
139 -139 0
140 -140 0
47 -151 0
47 -152 0
151 -151 0
152 -152 0
67 -163 0
67 -164 0
163 -163 0
164 -164 0
87 -175 0
87 -176 0
175 -175 0
176 -176 0
107 -187 0
107 -188 0
187 -187 0
188 -188 0
8 -127 0
8 -128 0
127 -127 0
128 -128 0
28 -139 0
28 -140 0
139 -139 0
140 -140 0
48 -151 0
48 -152 0
151 -151 0
152 -152 0
68 -163 0
68 -164 0
163 -163 0
164 -164 0
88 -175 0
88 -176 0
175 -175 0
176 -176 0
108 -187 0
108 -188 0
187 -187 0
188 -188 0
-9 -127 0
-9 -128 0
127 -127 0
128 -128 0
-29 -139 0
-29 -140 0
139 -139 0
140 -140 0
-49 -151 0
-49 -152 0
151 -151 0
152 -152 0
-69 -163 0
-69 -164 0
163 -163 0
164 -164 0
-89 -175 0
-89 -176 0
175 -175 0
176 -176 0
-109 -187 0
-109 -188 0
187 -187 0
188 -188 0
10 -203 -127 0
-10 203 -127 0
10 203 -128 0
-10 -203 -128 0
30 -203 -139 0
-30 203 -139 0
30 203 -140 0
-30 -203 -140 0
50 -203 -151 0
-50 203 -151 0
50 203 -152 0
-50 -203 -152 0
70 -203 -163 0
-70 203 -163 0
70 203 -164 0
-70 -203 -164 0
90 -203 -175 0
-90 203 -175 0
90 203 -176 0
-90 -203 -176 0
110 -203 -187 0
-110 203 -187 0
110 203 -188 0
-110 -203 -188 0
11 -127 0
11 -128 0
127 -127 0
128 -128 0
31 -139 0
31 -140 0
139 -139 0
140 -140 0
51 -151 0
51 -152 0
151 -151 0
152 -152 0
71 -163 0
71 -164 0
163 -163 0
164 -164 0
91 -175 0
91 -176 0
175 -175 0
176 -176 0
111 -187 0
111 -188 0
187 -187 0
188 -188 0
12 -204 -127 0
-12 204 -127 0
12 204 -128 0
-12 -204 -128 0
32 -204 -139 0
-32 204 -139 0
32 204 -140 0
-32 -204 -140 0
52 -204 -151 0
-52 204 -151 0
52 204 -152 0
-52 -204 -152 0
72 -204 -163 0
-72 204 -163 0
72 204 -164 0
-72 -204 -164 0
92 -204 -175 0
-92 204 -175 0
92 204 -176 0
-92 -204 -176 0
112 -204 -187 0
-112 204 -187 0
112 204 -188 0
-112 -204 -188 0
13 -205 -127 0
-13 205 -127 0
13 205 -128 0
-13 -205 -128 0
33 -205 -139 0
-33 205 -139 0
33 205 -140 0
-33 -205 -140 0
53 -205 -151 0
-53 205 -151 0
53 205 -152 0
-53 -205 -152 0
73 -205 -163 0
-73 205 -163 0
73 205 -164 0
-73 -205 -164 0
93 -205 -175 0
-93 205 -175 0
93 205 -176 0
-93 -205 -176 0
113 -205 -187 0
-113 205 -187 0
113 205 -188 0
-113 -205 -188 0
14 -127 0
14 -128 0
127 -127 0
128 -128 0
34 -139 0
34 -140 0
139 -139 0
140 -140 0
54 -151 0
54 -152 0
151 -151 0
152 -152 0
74 -163 0
74 -164 0
163 -163 0
164 -164 0
94 -175 0
94 -176 0
175 -175 0
176 -176 0
114 -187 0
114 -188 0
187 -187 0
188 -188 0
-15 -127 0
-15 -128 0
127 -127 0
128 -128 0
-35 -139 0
-35 -140 0
139 -139 0
140 -140 0
-55 -151 0
-55 -152 0
151 -151 0
152 -152 0
-75 -163 0
-75 -164 0
163 -163 0
164 -164 0
-95 -175 0
-95 -176 0
175 -175 0
176 -176 0
-115 -187 0
-115 -188 0
187 -187 0
188 -188 0
16 -127 0
16 -128 0
127 -127 0
128 -128 0
36 -139 0
36 -140 0
139 -139 0
140 -140 0
56 -151 0
56 -152 0
151 -151 0
152 -152 0
76 -163 0
76 -164 0
163 -163 0
164 -164 0
96 -175 0
96 -176 0
175 -175 0
176 -176 0
116 -187 0
116 -188 0
187 -187 0
188 -188 0
-17 -127 0
-17 -128 0
127 -127 0
128 -128 0
-37 -139 0
-37 -140 0
139 -139 0
140 -140 0
-57 -151 0
-57 -152 0
151 -151 0
152 -152 0
-77 -163 0
-77 -164 0
163 -163 0
164 -164 0
-97 -175 0
-97 -176 0
175 -175 0
176 -176 0
-117 -187 0
-117 -188 0
187 -187 0
188 -188 0
18 -206 -127 0
-18 206 -127 0
18 206 -128 0
-18 -206 -128 0
38 -206 -139 0
-38 206 -139 0
38 206 -140 0
-38 -206 -140 0
58 -206 -151 0
-58 206 -151 0
58 206 -152 0
-58 -206 -152 0
78 -206 -163 0
-78 206 -163 0
78 206 -164 0
-78 -206 -164 0
98 -206 -175 0
-98 206 -175 0
98 206 -176 0
-98 -206 -176 0
118 -206 -187 0
-118 206 -187 0
118 206 -188 0
-118 -206 -188 0
19 -127 0
19 -128 0
127 -127 0
128 -128 0
39 -139 0
39 -140 0
139 -139 0
140 -140 0
59 -151 0
59 -152 0
151 -151 0
152 -152 0
79 -163 0
79 -164 0
163 -163 0
164 -164 0
99 -175 0
99 -176 0
175 -175 0
176 -176 0
119 -187 0
119 -188 0
187 -187 0
188 -188 0
20 -207 -127 0
-20 207 -127 0
20 207 -128 0
-20 -207 -128 0
40 -207 -139 0
-40 207 -139 0
40 207 -140 0
-40 -207 -140 0
60 -207 -151 0
-60 207 -151 0
60 207 -152 0
-60 -207 -152 0
80 -207 -163 0
-80 207 -163 0
80 207 -164 0
-80 -207 -164 0
100 -207 -175 0
-100 207 -175 0
100 207 -176 0
-100 -207 -176 0
120 -207 -187 0
-120 207 -187 0
120 207 -188 0
-120 -207 -188 0
-319 127 0
319 -127 0
-320 128 0
319 -128 0
-319 -127 0
-320 -128 0
-331 127 319 0
331 -127 0
331 -319 0
-332 128 320 0
332 -128 0
332 -320 0
-331 -139 0
-332 -140 0
-343 139 331 0
343 -139 0
343 -331 0
-344 140 332 0
344 -140 0
344 -332 0
-343 -151 0
-344 -152 0
-355 151 343 0
355 -151 0
355 -343 0
-356 152 344 0
356 -152 0
356 -344 0
-355 -163 0
-356 -164 0
-367 163 355 0
367 -163 0
367 -355 0
-368 164 356 0
368 -164 0
368 -356 0
-367 -175 0
-368 -176 0
-379 175 367 0
379 -175 0
379 -367 0
-380 176 368 0
380 -176 0
380 -368 0
-379 -187 0
-380 -188 0
379 0
380 0
1 -208 -129 0
-1 208 -129 0
1 208 -130 0
-1 -208 -130 0
21 -208 -141 0
-21 208 -141 0
21 208 -142 0
-21 -208 -142 0
41 -208 -153 0
-41 208 -153 0
41 208 -154 0
-41 -208 -154 0
61 -208 -165 0
-61 208 -165 0
61 208 -166 0
-61 -208 -166 0
81 -208 -177 0
-81 208 -177 0
81 208 -178 0
-81 -208 -178 0
101 -208 -189 0
-101 208 -189 0
101 208 -190 0
-101 -208 -190 0
2 -209 -129 0
-2 209 -129 0
2 209 -130 0
-2 -209 -130 0
22 -209 -141 0
-22 209 -141 0
22 209 -142 0
-22 -209 -142 0
42 -209 -153 0
-42 209 -153 0
42 209 -154 0
-42 -209 -154 0
62 -209 -165 0
-62 209 -165 0
62 209 -166 0
-62 -209 -166 0
82 -209 -177 0
-82 209 -177 0
82 209 -178 0
-82 -209 -178 0
102 -209 -189 0
-102 209 -189 0
102 209 -190 0
-102 -209 -190 0
3 -210 -129 0
-3 210 -129 0
3 210 -130 0
-3 -210 -130 0
23 -210 -141 0
-23 210 -141 0
23 210 -142 0
-23 -210 -142 0
43 -210 -153 0
-43 210 -153 0
43 210 -154 0
-43 -210 -154 0
63 -210 -165 0
-63 210 -165 0
63 210 -166 0
-63 -210 -166 0
83 -210 -177 0
-83 210 -177 0
83 210 -178 0
-83 -210 -178 0
103 -210 -189 0
-103 210 -189 0
103 210 -190 0
-103 -210 -190 0
4 -211 -129 0
-4 211 -129 0
4 211 -130 0
-4 -211 -130 0
24 -211 -141 0
-24 211 -141 0
24 211 -142 0
-24 -211 -142 0
44 -211 -153 0
-44 211 -153 0
44 211 -154 0
-44 -211 -154 0
64 -211 -165 0
-64 211 -165 0
64 211 -166 0
-64 -211 -166 0
84 -211 -177 0
-84 211 -177 0
84 211 -178 0
-84 -211 -178 0
104 -211 -189 0
-104 211 -189 0
104 211 -190 0
-104 -211 -190 0
5 -129 0
5 -130 0
129 -129 0
130 -130 0
25 -141 0
25 -142 0
141 -141 0
142 -142 0
45 -153 0
45 -154 0
153 -153 0
154 -154 0
65 -165 0
65 -166 0
165 -165 0
166 -166 0
85 -177 0
85 -178 0
177 -177 0
178 -178 0
105 -189 0
105 -190 0
189 -189 0
190 -190 0
6 -212 -129 0
-6 212 -129 0
6 212 -130 0
-6 -212 -130 0
26 -212 -141 0
-26 212 -141 0
26 212 -142 0
-26 -212 -142 0
46 -212 -153 0
-46 212 -153 0
46 212 -154 0
-46 -212 -154 0
66 -212 -165 0
-66 212 -165 0
66 212 -166 0
-66 -212 -166 0
86 -212 -177 0
-86 212 -177 0
86 212 -178 0
-86 -212 -178 0
106 -212 -189 0
-106 212 -189 0
106 212 -190 0
-106 -212 -190 0
7 -213 -129 0
-7 213 -129 0
7 213 -130 0
-7 -213 -130 0
27 -213 -141 0
-27 213 -141 0
27 213 -142 0
-27 -213 -142 0
47 -213 -153 0
-47 213 -153 0
47 213 -154 0
-47 -213 -154 0
67 -213 -165 0
-67 213 -165 0
67 213 -166 0
-67 -213 -166 0
87 -213 -177 0
-87 213 -177 0
87 213 -178 0
-87 -213 -178 0
107 -213 -189 0
-107 213 -189 0
107 213 -190 0
-107 -213 -190 0
8 -214 -129 0
-8 214 -129 0
8 214 -130 0
-8 -214 -130 0
28 -214 -141 0
-28 214 -141 0
28 214 -142 0
-28 -214 -142 0
48 -214 -153 0
-48 214 -153 0
48 214 -154 0
-48 -214 -154 0
68 -214 -165 0
-68 214 -165 0
68 214 -166 0
-68 -214 -166 0
88 -214 -177 0
-88 214 -177 0
88 214 -178 0
-88 -214 -178 0
108 -214 -189 0
-108 214 -189 0
108 214 -190 0
-108 -214 -190 0
9 -215 -129 0
-9 215 -129 0
9 215 -130 0
-9 -215 -130 0
29 -215 -141 0
-29 215 -141 0
29 215 -142 0
-29 -215 -142 0
49 -215 -153 0
-49 215 -153 0
49 215 -154 0
-49 -215 -154 0
69 -215 -165 0
-69 215 -165 0
69 215 -166 0
-69 -215 -166 0
89 -215 -177 0
-89 215 -177 0
89 215 -178 0
-89 -215 -178 0
109 -215 -189 0
-109 215 -189 0
109 215 -190 0
-109 -215 -190 0
10 -216 -129 0
-10 216 -129 0
10 216 -130 0
-10 -216 -130 0
30 -216 -141 0
-30 216 -141 0
30 216 -142 0
-30 -216 -142 0
50 -216 -153 0
-50 216 -153 0
50 216 -154 0
-50 -216 -154 0
70 -216 -165 0
-70 216 -165 0
70 216 -166 0
-70 -216 -166 0
90 -216 -177 0
-90 216 -177 0
90 216 -178 0
-90 -216 -178 0
110 -216 -189 0
-110 216 -189 0
110 216 -190 0
-110 -216 -190 0
11 -129 0
11 -130 0
129 -129 0
130 -130 0
31 -141 0
31 -142 0
141 -141 0
142 -142 0
51 -153 0
51 -154 0
153 -153 0
154 -154 0
71 -165 0
71 -166 0
165 -165 0
166 -166 0
91 -177 0
91 -178 0
177 -177 0
178 -178 0
111 -189 0
111 -190 0
189 -189 0
190 -190 0
12 -129 0
12 -130 0
129 -129 0
130 -130 0
32 -141 0
32 -142 0
141 -141 0
142 -142 0
52 -153 0
52 -154 0
153 -153 0
154 -154 0
72 -165 0
72 -166 0
165 -165 0
166 -166 0
92 -177 0
92 -178 0
177 -177 0
178 -178 0
112 -189 0
112 -190 0
189 -189 0
190 -190 0
13 -217 -129 0
-13 217 -129 0
13 217 -130 0
-13 -217 -130 0
33 -217 -141 0
-33 217 -141 0
33 217 -142 0
-33 -217 -142 0
53 -217 -153 0
-53 217 -153 0
53 217 -154 0
-53 -217 -154 0
73 -217 -165 0
-73 217 -165 0
73 217 -166 0
-73 -217 -166 0
93 -217 -177 0
-93 217 -177 0
93 217 -178 0
-93 -217 -178 0
113 -217 -189 0
-113 217 -189 0
113 217 -190 0
-113 -217 -190 0
14 -218 -129 0
-14 218 -129 0
14 218 -130 0
-14 -218 -130 0
34 -218 -141 0
-34 218 -141 0
34 218 -142 0
-34 -218 -142 0
54 -218 -153 0
-54 218 -153 0
54 218 -154 0
-54 -218 -154 0
74 -218 -165 0
-74 218 -165 0
74 218 -166 0
-74 -218 -166 0
94 -218 -177 0
-94 218 -177 0
94 218 -178 0
-94 -218 -178 0
114 -218 -189 0
-114 218 -189 0
114 218 -190 0
-114 -218 -190 0
15 -219 -129 0
-15 219 -129 0
15 219 -130 0
-15 -219 -130 0
35 -219 -141 0
-35 219 -141 0
35 219 -142 0
-35 -219 -142 0
55 -219 -153 0
-55 219 -153 0
55 219 -154 0
-55 -219 -154 0
75 -219 -165 0
-75 219 -165 0
75 219 -166 0
-75 -219 -166 0
95 -219 -177 0
-95 219 -177 0
95 219 -178 0
-95 -219 -178 0
115 -219 -189 0
-115 219 -189 0
115 219 -190 0
-115 -219 -190 0
16 -220 -129 0
-16 220 -129 0
16 220 -130 0
-16 -220 -130 0
36 -220 -141 0
-36 220 -141 0
36 220 -142 0
-36 -220 -142 0
56 -220 -153 0
-56 220 -153 0
56 220 -154 0
-56 -220 -154 0
76 -220 -165 0
-76 220 -165 0
76 220 -166 0
-76 -220 -166 0
96 -220 -177 0
-96 220 -177 0
96 220 -178 0
-96 -220 -178 0
116 -220 -189 0
-116 220 -189 0
116 220 -190 0
-116 -220 -190 0
17 -221 -129 0
-17 221 -129 0
17 221 -130 0
-17 -221 -130 0
37 -221 -141 0
-37 221 -141 0
37 221 -142 0
-37 -221 -142 0
57 -221 -153 0
-57 221 -153 0
57 221 -154 0
-57 -221 -154 0
77 -221 -165 0
-77 221 -165 0
77 221 -166 0
-77 -221 -166 0
97 -221 -177 0
-97 221 -177 0
97 221 -178 0
-97 -221 -178 0
117 -221 -189 0
-117 221 -189 0
117 221 -190 0
-117 -221 -190 0
18 -129 0
18 -130 0
129 -129 0
130 -130 0
38 -141 0
38 -142 0
141 -141 0
142 -142 0
58 -153 0
58 -154 0
153 -153 0
154 -154 0
78 -165 0
78 -166 0
165 -165 0
166 -166 0
98 -177 0
98 -178 0
177 -177 0
178 -178 0
118 -189 0
118 -190 0
189 -189 0
190 -190 0
19 -222 -129 0
-19 222 -129 0
19 222 -130 0
-19 -222 -130 0
39 -222 -141 0
-39 222 -141 0
39 222 -142 0
-39 -222 -142 0
59 -222 -153 0
-59 222 -153 0
59 222 -154 0
-59 -222 -154 0
79 -222 -165 0
-79 222 -165 0
79 222 -166 0
-79 -222 -166 0
99 -222 -177 0
-99 222 -177 0
99 222 -178 0
-99 -222 -178 0
119 -222 -189 0
-119 222 -189 0
119 222 -190 0
-119 -222 -190 0
20 -129 0
20 -130 0
129 -129 0
130 -130 0
40 -141 0
40 -142 0
141 -141 0
142 -142 0
60 -153 0
60 -154 0
153 -153 0
154 -154 0
80 -165 0
80 -166 0
165 -165 0
166 -166 0
100 -177 0
100 -178 0
177 -177 0
178 -178 0
120 -189 0
120 -190 0
189 -189 0
190 -190 0
-321 129 0
321 -129 0
-322 130 0
321 -130 0
-321 -129 0
-322 -130 0
-333 129 321 0
333 -129 0
333 -321 0
-334 130 322 0
334 -130 0
334 -322 0
-333 -141 0
-334 -142 0
-345 141 333 0
345 -141 0
345 -333 0
-346 142 334 0
346 -142 0
346 -334 0
-345 -153 0
-346 -154 0
-357 153 345 0
357 -153 0
357 -345 0
-358 154 346 0
358 -154 0
358 -346 0
-357 -165 0
-358 -166 0
-369 165 357 0
369 -165 0
369 -357 0
-370 166 358 0
370 -166 0
370 -358 0
-369 -177 0
-370 -178 0
-381 177 369 0
381 -177 0
381 -369 0
-382 178 370 0
382 -178 0
382 -370 0
-381 -189 0
-382 -190 0
381 0
382 0
1 -223 -131 0
-1 223 -131 0
1 223 -132 0
-1 -223 -132 0
21 -223 -143 0
-21 223 -143 0
21 223 -144 0
-21 -223 -144 0
41 -223 -155 0
-41 223 -155 0
41 223 -156 0
-41 -223 -156 0
61 -223 -167 0
-61 223 -167 0
61 223 -168 0
-61 -223 -168 0
81 -223 -179 0
-81 223 -179 0
81 223 -180 0
-81 -223 -180 0
101 -223 -191 0
-101 223 -191 0
101 223 -192 0
-101 -223 -192 0
2 -224 -131 0
-2 224 -131 0
2 224 -132 0
-2 -224 -132 0
22 -224 -143 0
-22 224 -143 0
22 224 -144 0
-22 -224 -144 0
42 -224 -155 0
-42 224 -155 0
42 224 -156 0
-42 -224 -156 0
62 -224 -167 0
-62 224 -167 0
62 224 -168 0
-62 -224 -168 0
82 -224 -179 0
-82 224 -179 0
82 224 -180 0
-82 -224 -180 0
102 -224 -191 0
-102 224 -191 0
102 224 -192 0
-102 -224 -192 0
3 -225 -131 0
-3 225 -131 0
3 225 -132 0
-3 -225 -132 0
23 -225 -143 0
-23 225 -143 0
23 225 -144 0
-23 -225 -144 0
43 -225 -155 0
-43 225 -155 0
43 225 -156 0
-43 -225 -156 0
63 -225 -167 0
-63 225 -167 0
63 225 -168 0
-63 -225 -168 0
83 -225 -179 0
-83 225 -179 0
83 225 -180 0
-83 -225 -180 0
103 -225 -191 0
-103 225 -191 0
103 225 -192 0
-103 -225 -192 0
4 -226 -131 0
-4 226 -131 0
4 226 -132 0
-4 -226 -132 0
24 -226 -143 0
-24 226 -143 0
24 226 -144 0
-24 -226 -144 0
44 -226 -155 0
-44 226 -155 0
44 226 -156 0
-44 -226 -156 0
64 -226 -167 0
-64 226 -167 0
64 226 -168 0
-64 -226 -168 0
84 -226 -179 0
-84 226 -179 0
84 226 -180 0
-84 -226 -180 0
104 -226 -191 0
-104 226 -191 0
104 226 -192 0
-104 -226 -192 0
5 -131 0
5 -132 0
131 -131 0
132 -132 0
25 -143 0
25 -144 0
143 -143 0
144 -144 0
45 -155 0
45 -156 0
155 -155 0
156 -156 0
65 -167 0
65 -168 0
167 -167 0
168 -168 0
85 -179 0
85 -180 0
179 -179 0
180 -180 0
105 -191 0
105 -192 0
191 -191 0
192 -192 0
6 -227 -131 0
-6 227 -131 0
6 227 -132 0
-6 -227 -132 0
26 -227 -143 0
-26 227 -143 0
26 227 -144 0
-26 -227 -144 0
46 -227 -155 0
-46 227 -155 0
46 227 -156 0
-46 -227 -156 0
66 -227 -167 0
-66 227 -167 0
66 227 -168 0
-66 -227 -168 0
86 -227 -179 0
-86 227 -179 0
86 227 -180 0
-86 -227 -180 0
106 -227 -191 0
-106 227 -191 0
106 227 -192 0
-106 -227 -192 0
7 -228 -131 0
-7 228 -131 0
7 228 -132 0
-7 -228 -132 0
27 -228 -143 0
-27 228 -143 0
27 228 -144 0
-27 -228 -144 0
47 -228 -155 0
-47 228 -155 0
47 228 -156 0
-47 -228 -156 0
67 -228 -167 0
-67 228 -167 0
67 228 -168 0
-67 -228 -168 0
87 -228 -179 0
-87 228 -179 0
87 228 -180 0
-87 -228 -180 0
107 -228 -191 0
-107 228 -191 0
107 228 -192 0
-107 -228 -192 0
8 -229 -131 0
-8 229 -131 0
8 229 -132 0
-8 -229 -132 0
28 -229 -143 0
-28 229 -143 0
28 229 -144 0
-28 -229 -144 0
48 -229 -155 0
-48 229 -155 0
48 229 -156 0
-48 -229 -156 0
68 -229 -167 0
-68 229 -167 0
68 229 -168 0
-68 -229 -168 0
88 -229 -179 0
-88 229 -179 0
88 229 -180 0
-88 -229 -180 0
108 -229 -191 0
-108 229 -191 0
108 229 -192 0
-108 -229 -192 0
9 -230 -131 0
-9 230 -131 0
9 230 -132 0
-9 -230 -132 0
29 -230 -143 0
-29 230 -143 0
29 230 -144 0
-29 -230 -144 0
49 -230 -155 0
-49 230 -155 0
49 230 -156 0
-49 -230 -156 0
69 -230 -167 0
-69 230 -167 0
69 230 -168 0
-69 -230 -168 0
89 -230 -179 0
-89 230 -179 0
89 230 -180 0
-89 -230 -180 0
109 -230 -191 0
-109 230 -191 0
109 230 -192 0
-109 -230 -192 0
10 -231 -131 0
-10 231 -131 0
10 231 -132 0
-10 -231 -132 0
30 -231 -143 0
-30 231 -143 0
30 231 -144 0
-30 -231 -144 0
50 -231 -155 0
-50 231 -155 0
50 231 -156 0
-50 -231 -156 0
70 -231 -167 0
-70 231 -167 0
70 231 -168 0
-70 -231 -168 0
90 -231 -179 0
-90 231 -179 0
90 231 -180 0
-90 -231 -180 0
110 -231 -191 0
-110 231 -191 0
110 231 -192 0
-110 -231 -192 0
11 -131 0
11 -132 0
131 -131 0
132 -132 0
31 -143 0
31 -144 0
143 -143 0
144 -144 0
51 -155 0
51 -156 0
155 -155 0
156 -156 0
71 -167 0
71 -168 0
167 -167 0
168 -168 0
91 -179 0
91 -180 0
179 -179 0
180 -180 0
111 -191 0
111 -192 0
191 -191 0
192 -192 0
12 -232 -131 0
-12 232 -131 0
12 232 -132 0
-12 -232 -132 0
32 -232 -143 0
-32 232 -143 0
32 232 -144 0
-32 -232 -144 0
52 -232 -155 0
-52 232 -155 0
52 232 -156 0
-52 -232 -156 0
72 -232 -167 0
-72 232 -167 0
72 232 -168 0
-72 -232 -168 0
92 -232 -179 0
-92 232 -179 0
92 232 -180 0
-92 -232 -180 0
112 -232 -191 0
-112 232 -191 0
112 232 -192 0
-112 -232 -192 0
13 -233 -131 0
-13 233 -131 0
13 233 -132 0
-13 -233 -132 0
33 -233 -143 0
-33 233 -143 0
33 233 -144 0
-33 -233 -144 0
53 -233 -155 0
-53 233 -155 0
53 233 -156 0
-53 -233 -156 0
73 -233 -167 0
-73 233 -167 0
73 233 -168 0
-73 -233 -168 0
93 -233 -179 0
-93 233 -179 0
93 233 -180 0
-93 -233 -180 0
113 -233 -191 0
-113 233 -191 0
113 233 -192 0
-113 -233 -192 0
14 -234 -131 0
-14 234 -131 0
14 234 -132 0
-14 -234 -132 0
34 -234 -143 0
-34 234 -143 0
34 234 -144 0
-34 -234 -144 0
54 -234 -155 0
-54 234 -155 0
54 234 -156 0
-54 -234 -156 0
74 -234 -167 0
-74 234 -167 0
74 234 -168 0
-74 -234 -168 0
94 -234 -179 0
-94 234 -179 0
94 234 -180 0
-94 -234 -180 0
114 -234 -191 0
-114 234 -191 0
114 234 -192 0
-114 -234 -192 0
15 -235 -131 0
-15 235 -131 0
15 235 -132 0
-15 -235 -132 0
35 -235 -143 0
-35 235 -143 0
35 235 -144 0
-35 -235 -144 0
55 -235 -155 0
-55 235 -155 0
55 235 -156 0
-55 -235 -156 0
75 -235 -167 0
-75 235 -167 0
75 235 -168 0
-75 -235 -168 0
95 -235 -179 0
-95 235 -179 0
95 235 -180 0
-95 -235 -180 0
115 -235 -191 0
-115 235 -191 0
115 235 -192 0
-115 -235 -192 0
16 -236 -131 0
-16 236 -131 0
16 236 -132 0
-16 -236 -132 0
36 -236 -143 0
-36 236 -143 0
36 236 -144 0
-36 -236 -144 0
56 -236 -155 0
-56 236 -155 0
56 236 -156 0
-56 -236 -156 0
76 -236 -167 0
-76 236 -167 0
76 236 -168 0
-76 -236 -168 0
96 -236 -179 0
-96 236 -179 0
96 236 -180 0
-96 -236 -180 0
116 -236 -191 0
-116 236 -191 0
116 236 -192 0
-116 -236 -192 0
17 -237 -131 0
-17 237 -131 0
17 237 -132 0
-17 -237 -132 0
37 -237 -143 0
-37 237 -143 0
37 237 -144 0
-37 -237 -144 0
57 -237 -155 0
-57 237 -155 0
57 237 -156 0
-57 -237 -156 0
77 -237 -167 0
-77 237 -167 0
77 237 -168 0
-77 -237 -168 0
97 -237 -179 0
-97 237 -179 0
97 237 -180 0
-97 -237 -180 0
117 -237 -191 0
-117 237 -191 0
117 237 -192 0
-117 -237 -192 0
18 -131 0
18 -132 0
131 -131 0
132 -132 0
38 -143 0
38 -144 0
143 -143 0
144 -144 0
58 -155 0
58 -156 0
155 -155 0
156 -156 0
78 -167 0
78 -168 0
167 -167 0
168 -168 0
98 -179 0
98 -180 0
179 -179 0
180 -180 0
118 -191 0
118 -192 0
191 -191 0
192 -192 0
19 -131 0
19 -132 0
131 -131 0
132 -132 0
39 -143 0
39 -144 0
143 -143 0
144 -144 0
59 -155 0
59 -156 0
155 -155 0
156 -156 0
79 -167 0
79 -168 0
167 -167 0
168 -168 0
99 -179 0
99 -180 0
179 -179 0
180 -180 0
119 -191 0
119 -192 0
191 -191 0
192 -192 0
20 -131 0
20 -132 0
131 -131 0
132 -132 0
40 -143 0
40 -144 0
143 -143 0
144 -144 0
60 -155 0
60 -156 0
155 -155 0
156 -156 0
80 -167 0
80 -168 0
167 -167 0
168 -168 0
100 -179 0
100 -180 0
179 -179 0
180 -180 0
120 -191 0
120 -192 0
191 -191 0
192 -192 0
-323 131 0
323 -131 0
-324 132 0
323 -132 0
-323 -131 0
-324 -132 0
-335 131 323 0
335 -131 0
335 -323 0
-336 132 324 0
336 -132 0
336 -324 0
-335 -143 0
-336 -144 0
-347 143 335 0
347 -143 0
347 -335 0
-348 144 336 0
348 -144 0
348 -336 0
-347 -155 0
-348 -156 0
-359 155 347 0
359 -155 0
359 -347 0
-360 156 348 0
360 -156 0
360 -348 0
-359 -167 0
-360 -168 0
-371 167 359 0
371 -167 0
371 -359 0
-372 168 360 0
372 -168 0
372 -360 0
-371 -179 0
-372 -180 0
-383 179 371 0
383 -179 0
383 -371 0
-384 180 372 0
384 -180 0
384 -372 0
-383 -191 0
-384 -192 0
383 0
384 0
